\* Stage_1_Dual *\
Maximize
OBJ: Alpha_00 + Alpha_01 + Alpha_02
Subject To
Dual_Constraint_00: Alpha_00 <= 0
Dual_Constraint_01: Alpha_00 <= 0
Dual_Constraint_02: Alpha_00 <= 0
Dual_Constraint_03: Alpha_00 <= 5.2
Dual_Constraint_10: Alpha_01 <= 0
Dual_Constraint_11: Alpha_01 <= 0
Dual_Constraint_12: Alpha_01 <= 0
Dual_Constraint_13: Alpha_01 <= 5.2
Dual_Constraint_20: Alpha_02 <= 0
Dual_Constraint_21: Alpha_02 <= 0
Dual_Constraint_22: Alpha_02 <= 0
Dual_Constraint_23: Alpha_02 <= 5.2
End
